Tried aggregator 2 times.
MIQCP Presolve eliminated 872 rows and 827 columns.
Aggregator did 208 substitutions.
Reduced MIQCP has 119 rows, 244 columns, and 396 nonzeros.
Reduced MIQCP has 46 binaries, 0 generals, 0 SOSs, and 0 indicators.
Reduced MIQCP has 10 quadratic constraints.
Presolve time = 0.00 sec. (1.08 ticks)
Probing time = 0.00 sec. (0.10 ticks)
MIP emphasis: balance optimality and feasibility.
MIP search method: dynamic search.
Parallel mode: none, using 1 thread.
Root relaxation solution time = 0.00 sec. (0.16 ticks)

        Nodes                                         Cuts/
   Node  Left     Objective  IInf  Best Integer    Best Bound    ItCnt     Gap

      0     0   -24898.2592     7                 -26360.0000        9         
      0     0   -21340.3848     9                    Cone: 10       27         
      0     0   -20769.5372    12                    Cone: 19       43         
      0     0   -20632.9490    15                    Cone: 28       52         
      0     0   -20559.1382    14                    Cone: 36       63         
      0     0   -20510.3527    14                    Cone: 44       74         
      0     0   -20502.5751    16                    Cone: 52       82         
      0     0   -20493.4912    15                   Cone: 132      172         
      0     0   -20493.4911    15                   Cone: 142      179         
      0     0   -20493.4911    15                 -20493.4911      179         
*     0+    0                       -17073.0000   -20493.4911            20.03%
*     0+    0                       -18373.0000   -20493.4911            11.54%
      0     0   -20011.3647    15   -18373.0000      Cuts: 10      212    8.92%
      0     0   -19727.5659    17   -18373.0000       Cuts: 8      240    7.37%
      0     0   -19646.6094    17   -18373.0000      Cuts: 10      253    6.93%
      0     0   -19534.9214    19   -18373.0000       Cuts: 6      268    6.32%
      0     0   -19338.7006    18   -18373.0000      Cuts: 13      287    5.26%
*     0+    0                       -18422.0000   -19338.7006             4.98%
      0     0   -19306.8513    18   -18422.0000       Cuts: 7      303    4.80%
*     0+    0                       -18478.0000   -19306.8513             4.49%
      0     0   -19225.9862    18   -18478.0000       Cuts: 7      319    4.05%
      0     0   -19209.7306    18   -18478.0000       Cuts: 9      330    3.96%
      0     0   -19206.1442    18   -18478.0000       Cuts: 8      335    3.94%
      0     0   -19189.7291    18   -18478.0000       Cuts: 5      340    3.85%
      0     0   -19180.7767    19   -18478.0000      Cuts: 10      357    3.80%
      0     0   -19155.5499    10   -18478.0000       Cuts: 7      372    3.67%
      0     0   -19123.0559    20   -18478.0000       Cuts: 4      445    3.49%
      0     0   -19108.0775    23   -18478.0000       Cuts: 6      484    3.41%
*     0+    0                       -18496.0000   -19108.0775             3.31%
      0     0   -19105.8712    22   -18496.0000       Cuts: 5      497    3.30%
      0     0   -19105.2301    22   -18496.0000       Cuts: 8      509    3.29%
      0     2   -19105.2301    22   -18496.0000   -19100.3257      509    3.27%
Elapsed time = 0.42 sec. (284.78 ticks, tree = 0.01 MB, solutions = 5)
*   323     0      integral     0   -18596.0000   -18596.0000     3436    0.00%
#SOLVERNAME# CPLEX_MISOCP
#SOLVER# CPLEX.CplexSolver(Any[(:CPX_PARAM_THREADS,1),(:CPX_PARAM_TILIM,3600.0),(:CPX_PARAM_SCRIND,1),(:CPX_PARAM_EPINT,1.0e-8),(:CPX_PARAM_EPRHS,1.0e-7),(:CPX_PARAM_EPGAP,1.0e-5)])
#INSTANCE# ck_n50_m10_o3_5.cbf.gz
#TIMELIMIT# 3600.0
#STATUS# Optimal
#OBJVAL# 18596.0
#OBJBOUND# 18596.0
#TIMESOLVER# 0.5023360252380371
#TIMEALL# 1.9152238368988037
#SOLUTION# [1.0000000000000004,-0.0,1.0,0.9999999999999958,1.0,-0.0,0.9999999999999991,-0.0,1.0,1.0,-3.3306690738754696e-16,1.0,1.0,-3.3306690738754696e-16,1.0000000000000004,-0.0,0.0,1.0,0.0,0.0,1.0,0.0,1.0000000000000207,-0.0,-0.0,1.0,1.0,0.0,1.0,1.0,-9.992007221626409e-15,1.0,1.0,1.0,1.0,0.0,1.0,1.0,-0.0,1.0,1.0,1.0,0.0,1.0,-0.0,1.0,1.0,1.0,0.0,1.0000000000000002,0.0,0.0,0.0,0.0,39.99999999999983,0.0,0.0,81.99999999999993,0.0,0.0,0.0,0.0,0.0,0.0,0.0,0.0,0.0,0.0,0.0,0.0,0.0,0.0,0.0,0.0,0.0,0.0,0.0,0.0,0.0,0.0,0.0,0.0,0.0,0.0,0.0,1.0,0.0,0.0,0.0,0.0,128.0,0.0,155.0,0.0,0.0,0.0,0.0,0.0,0.0,0.0,0.0,280.0000000000001,118.00000000000006,0.0,0.0,0.0,3.0,0.0,0.0,0.0,0.0,3.0,0.0,0.0,0.0,-1.3322676295501878e-15,0.0,0.0,0.0,0.0,0.0,0.0,0.0,0.0,0.0,0.0,0.0,0.0,60.0,0.0,93.0,62.0,0.0,0.0,0.0,40.0,0.0,0.0,0.0,0.0,0.0,0.0,0.0,0.0,0.0,0.0,0.0,0.0,0.0,0.0,0.0,0.0,192.0,0.0,0.0,0.0,0.0,86.0,0.0,0.0,0.0,0.0,0.0,0.0,0.0,0.0,0.0,0.0,0.0,0.0,0.0,0.0,0.0,0.0,0.0,0.0,0.0,0.0,0.0,0.0,0.0,0.0,0.0,-5.295763827461997e-13,0.0,0.0,0.0,0.0,0.0,0.0,0.0,0.0,0.0,0.0,0.0,0.0,0.0,0.0,26.0,0.0,0.0,0.0,0.0,214.00000000000014,68.00000000000003,0.0,0.0,0.0,0.0,0.0,0.0,0.0,0.0,0.0,-5.6288307348495437e-14,0.0,0.0,0.0,54.00000000000002,0.0,0.0,0.0,0.0,0.0,0.0,0.0,0.0,0.0,0.0,0.0,0.0,0.0,0.0,16.0,0.0,0.0,0.0,0.0,0.0,0.0,0.0,0.0,0.0,0.0,0.0,0.0,0.0,0.0,0.0,0.0,0.0,0.0,0.0,38.00000000000001,163.0,0.0,0.0,0.0,0.0,0.0,0.0,0.0,0.0,0.0,0.0,0.0,0.0,0.0,0.0,30.000000000000014,0.0,0.0,0.0,0.0,0.0,0.0,0.0,0.0,0.0,0.0,0.0,0.0,0.0,0.0,0.0,0.0,0.0,0.0,0.0,3.0,0.0,0.0,0.0,0.0,0.0,0.0,0.0,0.0,0.0,0.0,0.0,0.0,0.0,0.0,0.0,121.0,0.0,0.0,0.0,0.0,0.0,0.0,0.0,0.0,0.0,0.0,0.0,0.0,0.0,-3.297362383136715e-14,0.0,0.0,0.0,0.0,0.0,0.0,8.0,0.0,0.0,0.0,0.0,0.0,27.0,0.0,0.0,0.0,-2.5979218776228663e-13,74.0,0.0,0.0,0.0,0.0,0.0,0.0,0.0,0.0,0.0,0.0,0.0,0.0,0.0,0.0,0.0,9.0,0.0,0.0,335.0000000000009,0.0,0.0,26.0,0.0,0.0,0.0,0.0,0.0,5.0,0.0,0.0,0.0,243.0,0.0,0.0,0.0,0.0,0.0,0.0,0.0,0.0,0.0,0.0,0.0,0.0,0.0,0.0,0.0,0.0,0.0,0.0,0.0,0.0,0.0,27.0,0.0,0.0,0.0,0.0,0.0,119.0,0.0,0.0,0.0,0.0,0.0,0.0,0.0,0.0,0.0,280.0,0.0,0.0,0.0,0.0,0.0,0.0,0.0,0.0,32.0,0.0,0.0,0.0,0.0,0.0,0.0,0.0,0.0,0.0,0.0,0.0,0.0,0.0,0.0,0.0,0.0,0.0,0.0,0.0,0.0,0.0,0.0,0.0,0.0,0.0,0.0,0.0,0.0,0.0,0.0,80.0,0.0,0.0,0.0,0.0,0.0,0.0,0.0,0.0,0.0,0.0,160.0,0.0,0.0,28.0,0.0,0.0,0.0,50.99999999999996,0.0,0.0,0.0,0.0,0.0,0.0,0.0,0.0,0.0,0.0,0.0,0.0,0.0,0.0,0.0,50.00000000000103,0.0,0.0,0.0,0.0,0.0,0.0,0.0,-1.2290168882600483e-12,0.0,8.0,0.0,61.0,0.0,2.0,0.0,0.0,0.0,0.0,0.0,0.0,0.0,0.0,0.0,80.0,0.0,0.0,87.00000000000001,192.00000000000034,0.0,0.0,0.0,94.9999999999996,0.0,0.0,0.0,0.0,0.0,0.0,0.0,0.0,0.0,0.0,0.0,0.0,0.0,0.0,0.0,0.0,0.0,0.0,26.000000000000536,0.0,0.0,96.0,100.0,0.0,0.0,0.0,-3.597122599785507e-13,0.0,0.0,0.0,0.0,0.0,0.0,0.0,0.0,0.0,0.0,0.0,0.0,0.0,0.0,0.0,0.0,0.0,0.0,0.0,175.9999999999997,395.97979746446674,197.9898987322334,-0.0,0.0,-0.0,56.568542494923555,-0.0,-0.0,115.96551211459368,-0.0,-0.0,-0.0,-0.0,-0.0,-0.0,-0.0,-0.0,-0.0,-0.0,-0.0,0.0,-0.0,-0.0,-0.0,-0.0,-0.0,0.0,-0.0,-0.0,0.0,-0.0,-0.0,-0.0,-0.0,-0.0,-0.0,1.414213562373095,-0.0,-0.0,-0.0,0.0,181.01933598375615,-0.0,219.2031021678297,-0.0,-0.0,-0.0,-0.0,-0.0,-0.0,-0.0,-0.0,271.5290039756342,135.76450198781714,166.87720036002528,-0.0,-0.0,-0.0,4.242640687119285,0.0,-0.0,-0.0,-0.0,4.242640687119285,-0.0,-0.0,-0.0,-1.88411095042053e-15,-0.0,-0.0,-0.0,-0.0,-0.0,0.0,-0.0,-0.0,-0.0,-0.0,-0.0,-0.0,84.85281374238569,0.0,131.52186130069782,87.68124086713189,-0.0,-0.0,-0.0,56.5685424949238,-0.0,-0.0,-0.0,-0.0,-0.0,-0.0,-0.0,-0.0,-0.0,-0.0,-0.0,-0.0,-0.0,-0.0,-0.0,-0.0,302.6417023478425,151.32085117392128,-0.0,-0.0,-0.0,-0.0,121.62236636408616,-0.0,-0.0,-0.0,-0.0,-0.0,-0.0,-0.0,-0.0,-0.0,-0.0,-0.0,-0.0,-0.0,-0.0,0.0,-0.0,0.0,-0.0,-0.0,0.0,-0.0,-0.0,0.0,-0.0,-0.0,-7.489341027921606e-13,-0.0,-0.0,-0.0,-0.0,-0.0,-0.0,-0.0,-0.0,-0.0,-0.0,-0.0,-0.0,-0.0,-0.0,36.76955262170047,-0.0,-0.0,-0.0,-0.0,230.51681066681448,115.25840533340725,96.1665222413705,-0.0,-0.0,-0.0,-0.0,-0.0,-0.0,-0.0,-0.0,-0.0,-7.960368765526738e-14,-0.0,-0.0,-0.0,76.36753236814715,-0.0,-0.0,-0.0,-0.0,-0.0,-0.0,-0.0,-0.0,0.0,-0.0,-0.0,-0.0,-0.0,-0.0,22.62741699796952,-0.0,-0.0,-0.0,-0.0,-0.0,0.0,-0.0,-0.0,-0.0,-0.0,-0.0,-0.0,-0.0,-0.0,0.0,-0.0,-0.0,-0.0,-0.0,53.74011537017762,171.1198410471445,85.55992052357226,-0.0,-0.0,-0.0,-0.0,-0.0,-0.0,-0.0,-0.0,-0.0,-0.0,-0.0,-0.0,-0.0,-0.0,42.42640687119287,0.0,-0.0,-0.0,-0.0,-0.0,-0.0,-0.0,-0.0,-0.0,0.0,-0.0,-0.0,-0.0,-0.0,-0.0,-0.0,-0.0,-0.0,-0.0,4.242640687119285,-0.0,-0.0,-0.0,-0.0,-0.0,-0.0,-0.0,-0.0,-0.0,-0.0,-0.0,-0.0,-0.0,-0.0,-0.0,473.7615433949881,236.88077169749408,-0.0,-0.0,-0.0,-0.0,-0.0,-0.0,-0.0,-0.0,-0.0,-0.0,-0.0,-0.0,-0.0,-4.663174602290812e-14,-0.0,-0.0,-0.0,-0.0,-0.0,0.0,11.31370849898476,-0.0,-0.0,-0.0,-0.0,-0.0,38.18376618407356,-0.0,-0.0,-0.0,-3.6740163533200335e-13,104.65180361560903,-0.0,-0.0,-0.0,-0.0,-0.0,-0.0,-0.0,-0.0,-0.0,-0.0,0.0,-0.0,-0.0,-0.0,-0.0,12.727922061357855,0.0,-0.0,395.97979746446657,197.9898987322333,-0.0,0.0,36.76955262170047,-0.0,-0.0,-0.0,-0.0,-0.0,7.071067811865475,-0.0,-0.0,-0.0,343.6538956566621,-0.0,-0.0,0.0,-0.0,-0.0,-0.0,-0.0,-0.0,-0.0,-0.0,-0.0,0.0,-0.0,-0.0,-0.0,-0.0,-0.0,-0.0,-0.0,-0.0,-0.0,38.18376618407356,0.0,-0.0,-0.0,-0.0,-0.0,168.2914139223983,-0.0,0.0,-0.0,0.0,-0.0,-0.0,-0.0,-0.0,-0.0,226.2741699796952,113.13708498984761,-0.0,0.0,-0.0,-0.0,-0.0,-0.0,-0.0,-0.0,45.25483399593904,-0.0,-0.0,-0.0,-0.0,-0.0,-0.0,-0.0,0.0,-0.0,-0.0,-0.0,-0.0,-0.0,-0.0,-0.0,-0.0,-0.0,-0.0,-0.0,-0.0,-0.0,-0.0,-0.0,-0.0,-0.0,-0.0,0.0,-0.0,-0.0,-0.0,113.1370849898476,-0.0,-0.0,0.0,-0.0,-0.0,-0.0,-0.0,-0.0,-0.0,-0.0,271.5290039756347,135.76450198781737,-0.0,-0.0,39.597979746446654,-0.0,-0.0,0.0,72.12489168102778,-0.0,-0.0,-0.0,-0.0,-0.0,-0.0,-0.0,-0.0,-0.0,-0.0,-0.0,-0.0,0.0,-0.0,0.0,70.7106781186562,-0.0,0.0,-0.0,-0.0,-0.0,-0.0,-0.0,-1.7380923517629388e-12,-0.0,11.31370849898476,-0.0,86.26702730475878,-0.0,2.82842712474619,-0.0,-0.0,-0.0,-0.0,-0.0,-0.0,-0.0,-0.0,-0.0,113.1370849898476,-0.0,0.0,123.03657992645928,248.90158697766427,124.45079348883215,-0.0,-0.0,-0.0,134.35028842544344,-0.0,-0.0,-0.0,0.0,-0.0,-0.0,-0.0,-0.0,-0.0,-0.0,-0.0,-0.0,-0.0,-0.0,-0.0,-0.0,-0.0,0.0,36.76955262170123,0.0,0.0,135.7645019878171,141.42135623730948,-0.0,-0.0,-0.0,-5.087099566135431e-13,-0.0,-0.0,-0.0,-0.0,-0.0,-0.0,-0.0,-0.0,-0.0,-0.0,-0.0,-0.0,-0.0,-0.0,-0.0,-0.0,-0.0,-0.0,-0.0]

Cover cuts applied:  4
Flow cuts applied:  6
Mixed integer rounding cuts applied:  20
Zero-half cuts applied:  12
Lift and project cuts applied:  13
Cone linearizations applied:  103

Root node processing (before b&c):
  Real time             =    0.42 sec. (284.83 ticks)
Sequential b&c:
  Real time             =    0.08 sec. (68.67 ticks)
                          ------------
Total (root+branch&cut) =    0.50 sec. (353.51 ticks)
